c --- [ banner ] -------------------------------------------------------------
c 
c CaDiCaL Radically Simplified CDCL SAT Solver
c Copyright (c) 2016-2021 A. Biere, M. Fleury, N. Froleyks
c 
c Version 1.5.2 a5f15211db36c3956764e18194dd5bd63bf3b5e6
c g++ (GCC) 9.3.0 -Wall -Wextra -O3 -DNDEBUG
c Fri Oct 21 01:27:37 EDT 2022 Linux gra-login3 3.10.0-1160.66.1.el7.x86_64 x86_64
c 
c --- [ limit ] --------------------------------------------------------------
c 
c setting conflict limit to 200000 conflicts (due to '200000')
c 
c --- [ parsing input ] ------------------------------------------------------
c 
c reading DIMACS file from '33.cubes2611.adj'
c opening file to read '33.cubes2611.adj'
c found 'p cnf 6160 1595477' header
c parsed 1595477 clauses in 20.10 seconds process time
c closing file '33.cubes2611.adj'
c after reading 1457566786 bytes 1390.0 MB
c 
c --- [ options ] ------------------------------------------------------------
c 
c all options are set to their default value
c 
c --- [ solving ] ------------------------------------------------------------
c 
c time measured in process time since initialization
c 
c  seconds    reductions  redundant   irredundant
c          MB     restarts       trail       variables
c            level   conflicts       glue         remaining
c 
c * 20.10 1377  0 0   0    0    0  0% 0 1595422 2420 39%
c { 20.59 1401  0 0   0    0    0  0% 0 1595422 2420 39%
c i 23.21 1484 755 0   5   45   41 33% 24 1595422 2419 39%
c i 23.56 1486 601 0   8   60   54 32% 45 1595422 2418 39%
c i 23.61 1486 571 0  10   64   55 32% 47 1595422 2417 39%
c i 23.67 1488 545 0  11   68   57 31% 46 1595422 2415 39%
c i 24.34 1493 427 0  14   88   72 30% 39 1595422 2414 39%
c i 24.66 1494 359 0  14  106   87 30% 37 1595422 2413 39%
c i 24.76 1494 346 0  14  111   91 30% 37 1595422 2412 39%
c i 24.79 1494 339 0  14  114   93 30% 37 1595422 2411 39%
c i 24.84 1494 314 0  14  128  103 30% 39 1595422 2410 39%
c i 25.11 1497 291 0  18  147  121 29% 42 1595422 2409 39%
c i 25.44 1500 256 0  21  173  139 28% 38 1595422 2408 39%
c i 25.56 1500 253 0  21  177  141 28% 39 1595422 2407 39%
c i 25.61 1500 242 0  22  190  153 29% 41 1595422 2406 39%
c i 25.63 1500 232 0  22  200  159 29% 40 1595422 2405 39%
c i 25.66 1500 226 0  22  206  164 29% 39 1595422 2404 39%
c i 25.73 1500 202 0  22  234  184 29% 37 1595422 2403 39%
c i 25.74 1500 200 0  22  237  185 29% 37 1595422 2402 39%
c i 25.75 1500 199 0  22  238  185 29% 37 1595422 2401 39%
c 
c  seconds     reductions  redundant    irredundant
c          MB      restarts       trail        variables
c             level   conflicts       glue          remaining
c 
c i 25.76 1500 197 0  22  240  186 29% 37 1595422 2400 39%
c i 25.81 1500 188 0  22  257  198 29% 36 1595422 2399 39%
c i 25.82 1500 186 0  22  261  201 29% 36 1595422 2398 39%
c i 25.84 1500 182 0  22  268  204 29% 36 1595422 2397 39%
c i 25.84 1500 180 0  22  272  206 29% 36 1595422 2396 39%
c i 25.86 1500 174 0  22  285  209 29% 36 1595422 2395 39%
c i 25.87 1500 171 0  22  290  213 29% 36 1595422 2394 39%
c - 29.50 1415 166 1  22  301  222 29% 36 199778 2394 39%
c i 29.65 1381 166 1  22  302  222 29% 36 199778 2393 39%
c i 29.75 1381 155 1  22  328  245 30% 35 199778 2392 39%
c i 30.05 1381 150 1  31  372  285 29% 37 199778 2388 39%
c i 30.05 1381 150 1  32  373  285 29% 37 199778 2354 38%
c i 30.12 1381 150 1  34  379  289 29% 38 199778 2353 38%
c i 30.14 1381 150 1  34  384  292 29% 38 199778 2352 38%
c i 30.30 1381 147 1  42  413  316 29% 38 199778 2351 38%
c i 30.50 1381 145 1  49  437  339 29% 40 199778 2350 38%
c i 30.51 1381 145 1  49  439  340 29% 40 199778 2349 38%
c i 30.51 1381 144 1  50  440  340 29% 40 199778 2348 38%
c i 30.51 1381 144 1  50  441  340 29% 40 199778 2347 38%
c i 30.51 1381 144 1  50  442  340 29% 40 199778 2346 38%
c 
c  seconds     reductions  redundant   irredundant
c          MB      restarts       trail       variables
c             level   conflicts       glue         remaining
c 
c i 30.51 1381 143 1  51  443  340 29% 40 199778 2345 38%
c i 30.51 1381 143 1  51  444  340 29% 39 199778 2344 38%
c i 30.66 1381 136 1  55  491  380 29% 40 199778 2343 38%
c i 30.71 1381 136 1  56  495  383 29% 40 199778 2342 38%
c i 30.72 1381 136 1  56  498  385 29% 40 199778 2341 38%
c i 30.82 1381 141 1  58  543  420 29% 37 199778 2340 38%
c i 30.95 1381 145 1  59  579  451 28% 39 199778 2339 38%
c i 31.20 1381 136 1  66  646  506 28% 39 199778 2338 38%
c i 31.25 1381 134 1  66  665  523 28% 39 199778 2337 38%
c i 31.28 1381 133 1  66  675  529 28% 38 199778 2334 38%
c i 31.44 1381 132 1  73  721  573 28% 40 199778 2333 38%
c i 31.48 1381 131 1  75  730  581 28% 40 199778 2332 38%
c i 31.48 1381 132 1  76  734  584 28% 40 199778 2331 38%
c i 31.52 1381 132 1  78  744  593 28% 40 199778 2330 38%
c i 31.80 1381 125 1  94  831  665 28% 40 199778 2329 38%
c i 31.81 1381 125 1  94  835  668 28% 40 199778 2328 38%
c i 31.83 1381 122 1  94  863  689 28% 40 199778 2327 38%
c i 31.96 1381 113 1  94  978  778 29% 39 199778 2326 38%
c } 32.04 1381 112 1  98 1002  798 29% 40 199778 2326 38%
c [ 32.04 1381  0 1  98 1002  798  0% 0 199778 2326 38%
c 
c  seconds    reductions  redundant  irredundant
c          MB     restarts       trail      variables
c            level   conflicts       glue        remaining
c 
c O 32.06 1381  0 1  98 1003  798 14% 0 199778 2326 38%
c i 32.06 1381  0 1  98 1003  798 14% 0 199778 2310 38%
c i 32.06 1381  1 1  98 1004  798 13% 0 199778 2299 37%
c - 32.62 1475 20 2  98 1081  733 28% 14 198603 2299 37%
c i 32.70 1475 20 2  98 1096  745 29% 15 198603 2298 37%
c i 32.76 1475 20 2  98 1116  762 29% 15 198603 2297 37%
c i 32.79 1475 20 2  98 1145  787 30% 15 198603 2296 37%
c i 33.01 1475 30 2  98 1566 1102 31% 25 198603 2295 37%
c i 33.08 1475 31 2  98 1683 1182 31% 26 198603 2294 37%
c i 33.09 1475 31 2  98 1688 1186 31% 26 198603 2293 37%
c i 33.10 1475 33 2  98 1726 1216 31% 27 198603 2292 37%
c i 33.13 1475 34 2  98 1819 1291 31% 28 198603 2291 37%
c i 33.22 1475 34 2  99 2126 1518 31% 28 198603 2290 37%
c i 33.23 1475 34 2  99 2128 1519 31% 28 198603 2289 37%
c i 33.24 1475 34 2  99 2164 1546 31% 28 198603 2288 37%
c - 33.55 1473 33 3  99 2254 1243 31% 28 198570 2288 37%
c i 33.82 1444 33 3  99 2325 1289 53% 27 198570 2287 37%
c i 34.14 1444 31 3  99 2832 1607 54% 26 198570 2286 37%
c ] 34.25 1444 32 3  99 3005 1727 54% 27 198570 2286 37%
c { 34.25 1444 112 3  99 3005 1727 78% 40 198570 2286 37%
c 
c  seconds     reductions  redundant   irredundant
c          MB      restarts       trail       variables
c             level   conflicts       glue         remaining
c 
c F 34.28 1444 112 3 100 3006 1728 78% 39 198570 2286 37%
c i 34.63 1444 104 3 100 3162 1864 73% 38 198570 2285 37%
c i 34.70 1444 104 3 103 3214 1904 72% 38 198570 2284 37%
c i 34.71 1444 103 3 105 3228 1915 72% 38 198570 2283 37%
c i 34.77 1444 103 3 107 3240 1925 72% 38 198570 2281 37%
c i 34.88 1444 101 3 109 3323 2000 70% 38 198570 2280 37%
c i 34.90 1444 100 3 109 3342 2018 70% 38 198570 2279 37%
c i 35.15 1444 89 3 117 3718 2323 65% 37 198570 2278 37%
c - 35.39 1353 85 4 117 3811 1733 64% 36 198542 2278 37%
c i 35.89 1353 82 4 120 4000 1883 63% 36 198542 2277 37%
c i 35.89 1353 82 4 120 4003 1885 63% 35 198542 2276 37%
c i 35.89 1353 82 4 120 4004 1885 63% 35 198542 2275 37%
c i 35.89 1353 82 4 120 4007 1886 63% 35 198542 2274 37%
c i 35.89 1353 82 4 120 4008 1886 63% 35 198542 2273 37%
c i 35.89 1353 81 4 120 4012 1889 63% 35 198542 2272 37%
c i 35.89 1353 81 4 120 4013 1889 63% 35 198542 2271 37%
c i 36.15 1353 82 4 127 4067 1938 62% 36 198542 2270 37%
c i 36.34 1353 78 4 134 4227 2064 61% 35 198542 2269 37%
c i 36.49 1353 78 4 134 4248 2083 61% 35 198542 2268 37%
c 2 37.61 1353 66 4 136 5000 3940 58% 32 198482 2259 37%
c 
c  seconds    reductions  redundant   irredundant
c          MB     restarts       trail       variables
c            level   conflicts       glue         remaining
c 
c p 44.27 1353 66 4 136 5000 7384 58% 32 198482 2224 36%
c d 44.59 1353 66 4 136 5000 7151 58% 32 198380 2223 36%
c - 45.95 1355 60 5 137 5757 2475 56% 31 198380 2223 36%
c # 46.21 1355 58 5 137 6008 2676 56% 31 198380 2223 36%
c } 47.78 1355 53 5 146 7005 3416 55% 30 198380 2223 36%
c [ 47.78 1355 32 5 146 7005 3416 54% 27 198380 2223 36%
c - 48.56 1355 29 6 147 8093 2896 52% 24 198380 2223 36%
c I 50.09 1355 26 6 148 10012 4122 50% 22 198380 2223 36%
c - 51.11 1355 33 7 149 10817 3240 51% 28 198380 2223 36%
c - 53.69 1355 42 8 151 13933 3630 52% 36 198380 2223 36%
c p 57.71 1355 44 8 151 15001 8664 52% 37 198380 2222 36%
c ] 57.83 1355 44 8 151 15005 8668 52% 37 198380 2222 36%
c { 57.83 1355 53 8 151 15005 8668 55% 30 198380 2222 36%
c B 57.88 1355 53 8 151 15013 8676 55% 30 198380 2222 36%
c - 59.87 1355 45 9 179 17436 4347 53% 27 198377 2222 36%
c s 60.74 1355 43 9 189 18730 5127 53% 27 196586 2222 36%
c v 63.89 1355 43 9 189 18730 5127 53% 27 196575 2222 36%
c t 63.97 1355 43 9 189 18730 5115 53% 27 196562 2222 36%
c e 64.80 1356 43 9 189 18730 4806 53% 27 193523 750 12%
c s 64.88 1356 43 9 189 18730 4806 53% 27 192559 750 12%
c 
c  seconds    reductions   redundant   irredundant
c          MB     restarts        trail       variables
c            level    conflicts       glue        remaining
c 
c W 67.83 1356 39 9 189 21016 6435 80% 26 192559 750 12%
c - 67.99 1356 38 10 192 21328 5209 80% 25 192559 750 12%
c - 69.58 1356 34 11 197 25570 5047 81% 24 192559 750 12%
c F 70.60 1356 32 11 205 28017 6647 81% 23 192559 750 12%
c } 70.82 1356 32 11 217 28158 6733 81% 23 192559 750 12%
c 1 70.82 1356 32 11 217 28158 6733 81% 23 192559 750 12%
c 
c --- [ writing output ] -----------------------------------------------------
c 
c writing simplified CNF to DIMACS file 'simp/33.cubes2611.adj.simp1'
c * 70.82 1356 32 11 217 28158 6733 81% 23 192559 750 12%
c opening file to write 'simp/33.cubes2611.adj.simp1'
c writing 'p cnf 6160 192559' header
c closing file 'simp/33.cubes2611.adj.simp1'
c after writing 101445951 bytes 96.7 MB
c wrote 192559 clauses in 0.71 seconds process time
c 
c --- [ writing extension ] --------------------------------------------------
c 
c writing extension stack to 'simp/33.cubes2611.adj.ext1'
c opening file to write 'simp/33.cubes2611.adj.ext1'
c closing file 'simp/33.cubes2611.adj.ext1'
c after writing 94642 bytes 0.1 MB
c wrote 4181 witnesses in 0.00 seconds process time
c 
c --- [ result ] -------------------------------------------------------------
c 
s SATISFIABLE
c 
c --- [ run-time profiling ] -------------------------------------------------
c 
c process time taken by individual solving procedures
c (percentage relative to process time for solving)
c 
c        34.90   68.80% search
c        25.40   50.08% unstable
c        20.10   39.62% parse
c        15.82   31.19% simplify
c        10.08   19.88% probe
c         8.77   17.29% stable
c         3.21    6.33% vivify
c         1.57    3.09% elim
c         0.49    0.97% lucky
c         0.24    0.47% walk
c         0.15    0.31% subsume
c         0.07    0.13% ternary
c   =================================
c        50.72   70.90% solve
c 
c last line shows process time for solving
c (percentage relative to total process time)
c 
c --- [ statistics ] ---------------------------------------------------------
c 
c chronological:              4459        15.84 %  of conflicts
c conflicts:                 28158       555.14    per second
c decisions:                 57825      1140.03    per second
c eliminated:                 1472        23.90 %  of all variables
c fixed:                       784        12.73 %  of all variables
c learned:                   27623        98.10 %  per conflict
c learned_lits:            5787215       100.00 %  learned literals
c minimized:                     0         0.00 %  learned literals
c shrunken:                3873175        66.93 %  learned literals
c minishrunken:             350189         6.05 %  learned literals
c propagations:            3100545         0.06 M  per second
c reduced:                   12875        45.72 %  per conflict
c rephased:                      7      4022.57    interval
c restarts:                    217       129.76    interval
c stabilizing:                   2        35.52 %  of conflicts
c substituted:                  10         0.16 %  of all variables
c subsumed:                  10507         0.31 %  of all clauses
c strengthened:               2257         0.07 %  of all clauses
c ternary:                    2470         0.62 %  of resolved
c vivified:                     14         0.00 %  of all clauses
c walked:                        1     28158.00    interval
c weakened:                   3397         2.98    average size
c 
c seconds are measured in process time for solving
c 
c --- [ resources ] ----------------------------------------------------------
c 
c total process time since initialization:        71.54    seconds
c total real time since initialization:           72.76    seconds
c maximum resident set size of process:         1566.43    MB
c 
c --- [ shutting down ] ------------------------------------------------------
c 
c exit 10
WARNING! DIMACS header mismatch: wrong number of variables.
============================[ Problem Statistics ]=============================
|                                                                             |
|  Number of variables:          3251                                         |
|  Number of clauses:          192559                                         |
|  Parse time:                   1.43 s                                       |
|  Simplification time:          0.04 s                                       |
|                                                                             |
============================[ Search Statistics ]====================================================
| Conflicts |          ORIGINAL         |          LEARNT          | Num Sols |      SUBGRAPHS      |
|           |    Vars  Clauses Literals |    Limit  Clauses Lit/Cl |          | Canonical Noncanon. |
=====================================================================================================
|       101 |    3159   192560 21629293 |     2000      101    125 |        0 |        12         1 |
|       270 |    3159   192579 21629798 |     2000      270    110 |        0 |        27        20 |
|       546 |    3159   192630 21630649 |     2000      546    104 |        0 |        53        71 |
|      1083 |    3159   192830 21633337 |     2000     1083     84 |        0 |       102       271 |
|      1936 |    3159   193177 21638159 |     2000     1936     80 |        0 |       172       618 |
|      2775 |    3159   193257 21639209 |     3600     1775     41 |        0 |       198       698 |
|      4230 |    3159   193573 21643321 |     3600     3230     63 |        0 |       262      1014 |
|      6326 |    3159   193961 21647656 |     5002     3528     53 |        0 |       334      1402 |
|     10266 |    3147   195338 21662247 |     6301     4966     38 |        0 |       569      2780 |
=====================================================================================================
Number of solutions   : 0
Canonical subgraphs   : 694            (45 /sec)
          order  3    : 1              (100000 /sec)
          order  4    : 1              (333333 /sec)
          order  5    : 1              (125000 /sec)
          order  6    : 1              (22222 /sec)
          order  7    : 1              (5435 /sec)
          order  8    : 1              (1397 /sec)
          order  9    : 2              (649 /sec)
          order 10    : 9              (447 /sec)
          order 11    : 25             (239 /sec)
          order 12    : 80             (147 /sec)
          order 13    : 132            (103 /sec)
          order 14    : 212            (49 /sec)
          order 15    : 92             (35 /sec)
          order 16    : 20             (32 /sec)
          order 17    : 38             (23 /sec)
          order 18    : 42             (17 /sec)
          order 19    : 24             (18 /sec)
          order 20    : 6              (24 /sec)
          order 21    : 6              (26 /sec)
          order 22    : 0              (-nan /sec)
Noncanonical subgraphs: 3341           (602 /sec)
          order  3    : 0              (-nan /sec)
          order  4    : 0              (-nan /sec)
          order  5    : 0              (-nan /sec)
          order  6    : 0              (-nan /sec)
          order  7    : 0              (-nan /sec)
          order  8    : 0              (-nan /sec)
          order  9    : 0              (-nan /sec)
          order 10    : 0              (-nan /sec)
          order 11    : 0              (-nan /sec)
          order 12    : 0              (-nan /sec)
          order 13    : 491            (17733 /sec)
          order 14    : 1443           (2943 /sec)
          order 15    : 731            (1749 /sec)
          order 16    : 244            (1139 /sec)
          order 17    : 112            (171 /sec)
          order 18    : 314            (90 /sec)
          order 19    : 0              (-nan /sec)
          order 20    : 0              (-nan /sec)
          order 21    : 0              (-nan /sec)
Canonicity checking   : 15.3988 s
Noncanonicity checking: 5.55076 s
Total canonicity time : 20.9495 s
database reductions   : 4
restarts              : 62
conflicts             : 14488          (506 /sec)
decisions             : 36107          (0.00 % random) (1262 /sec)
propagations          : 636190         (22235 /sec)
conflict literals     : 1121624        (49.25 % deleted)
actual reward         : 0.269586
Memory used           : 144.00 MB
CPU time              : 28.6125 s

UNSATISFIABLE
